B=6;
D=1;
P=10;
S=10;
demands = [2 3 3 2 2 5 2 2 1 5 ];
capacities = [5 7 1 2 5 7 9 5 4 6 ];
dist_start = [2 4 5 7 4 8 6 4 9 6 ];
dist = [5 5 5 4 5 3 2 2 10 8 5 9 10 4 9 3 3 1 1 1 4 5 7 10 10 5 5 4 3 2 10 7 6 5 2 3 9 3 4 8 10 8 8 2 3 7 6 5 7 7 8 2 3 4 2 2 10 8 7 2 10 7 1 7 3 4 9 1 7 4 10 8 3 8 1 6 6 7 2 4 5 1 5 9 7 8 10 6 6 7 10 7 5 2 3 7 5 4 9 3 ];
